
Log started (V11.0.0) Fri May 16 02:47:10 2008

Tried aggregator 1 time.
Reduced MIP has 230 rows, 6001 columns, and 12030 nonzeros.
Presolve time =    0.05 sec.
Clique table members: 200.
MIP emphasis: balance optimality and feasibility.
MIP search method: dynamic search.
Parallel mode: none, using 1 thread.
Root relaxation solution time =    0.25 sec.

        Nodes                                         Cuts/
   Node  Left     Objective  IInf  Best Integer     Best Node    ItCnt     Gap

*     0+    0                         6754.0000      330.9339      459   95.10%
*     0+    0                          396.0000      330.9339      459   16.43%
      0     0      332.0947    58      396.0000      Fract: 6      506   16.14%
*     0+    0                          354.0000      332.0947      506    6.19%
      0     0      338.6815    76      354.0000      Cuts: 25     1233    4.33%
      0     0      339.8883    84      354.0000      Cuts: 22     1435    3.99%
      0     0      339.9027    92      354.0000      Cuts: 15     1623    3.98%
      0     0      339.9175    90      354.0000      Cuts: 18     1795    3.98%
      0     0      339.9487    89      354.0000      Cuts: 14     1912    3.97%
      0     0      339.9487    99      354.0000       Cuts: 8     2025    3.97%
*     0+    0                          352.0000      339.9487     2025    3.42%
*     0+    0                          351.0000      339.9487     2025    3.15%
*     0+    0                          349.0000      339.9487     2025    2.59%
*     0+    0                          348.0000      339.9487     2025    2.31%
      0     2      339.9487    99      348.0000      339.9487     2025    2.31%
    100    95      340.0000    61      348.0000      339.9512     7095    2.31%
    200   168      340.3136    75      348.0000      339.9512    16425    2.31%
    300   244      340.0000    72      348.0000      339.9512    25106    2.31%
    400   313      340.0000    74      348.0000      339.9512    33267    2.31%

Cover cuts applied:  22
Mixed integer rounding cuts applied:  9
Zero-half cuts applied:  1
Gomory fractional cuts applied:  1

Solution pool: 7 solutions saved.

MIP - Integer optimal solution:  Objective = 3.4800000000e+002
Solution time =   25.67 sec.  Iterations = 41873  Nodes = 488 (368)


Incumbent solution
Variable Name           Solution Value
Cmax                        348.000000
X_1_1                         1.000000
X_2_23                        1.000000
X_3_30                        1.000000
X_4_21                        1.000000
X_5_20                        1.000000
X_6_21                        1.000000
X_7_28                        1.000000
X_8_14                        1.000000
X_9_5                         1.000000
X_10_2                        1.000000
X_11_1                        1.000000
X_12_6                        1.000000
X_13_21                       1.000000
X_14_25                       1.000000
X_15_16                       1.000000
X_16_4                        1.000000
X_17_2                        1.000000
X_18_1                        1.000000
X_19_9                        1.000000
X_20_1                        1.000000
X_21_1                        1.000000
X_22_15                       1.000000
X_23_21                       1.000000
X_24_6                        1.000000
X_25_1                        1.000000
X_26_12                       1.000000
X_27_23                       1.000000
X_28_8                        1.000000
X_29_24                       1.000000
X_30_12                       1.000000
X_31_1                        1.000000
X_32_30                       1.000000
X_33_10                       1.000000
X_34_6                        1.000000
X_35_1                        1.000000
X_36_7                        1.000000
X_37_10                       1.000000
X_38_10                       1.000000
X_39_1                        1.000000
X_40_25                       1.000000
X_41_22                       1.000000
X_42_7                        1.000000
X_43_27                       1.000000
X_44_16                       1.000000
X_45_30                       1.000000
X_46_1                        1.000000
X_47_1                        1.000000
X_48_17                       1.000000
X_49_16                       1.000000
X_50_30                       1.000000
X_51_19                       1.000000
X_52_25                       1.000000
X_53_4                        1.000000
X_54_1                        1.000000
X_55_15                       1.000000
X_56_16                       1.000000
X_57_30                       1.000000
X_58_4                        1.000000
X_59_3                        1.000000
X_60_1                        1.000000
X_61_24                       1.000000
X_62_14                       1.000000
X_63_1                        1.000000
X_64_21                       1.000000
X_65_1                        1.000000
X_66_30                       1.000000
X_67_18                       1.000000
X_68_9                        1.000000
X_69_22                       1.000000
X_70_30                       1.000000
X_71_9                        1.000000
X_72_5                        1.000000
X_73_25                       1.000000
X_74_18                       1.000000
X_75_21                       1.000000
X_76_3                        1.000000
X_77_6                        1.000000
X_78_10                       1.000000
X_79_17                       1.000000
X_80_29                       1.000000
X_81_3                        1.000000
X_82_5                        1.000000
X_83_16                       1.000000
X_84_6                        1.000000
X_85_19                       1.000000
X_86_4                        1.000000
X_87_16                       1.000000
X_88_29                       1.000000
X_89_9                        1.000000
X_90_6                        1.000000
X_91_1                        1.000000
X_92_28                       1.000000
X_93_27                       1.000000
X_94_1                        1.000000
X_95_13                       1.000000
X_96_17                       1.000000
X_97_7                        1.000000
X_98_14                       1.000000
X_99_13                       1.000000
X_100_4                       1.000000
X_101_27                      1.000000
X_102_29                      1.000000
X_103_21                      1.000000
X_104_1                       1.000000
X_105_24                      1.000000
X_106_23                      1.000000
X_107_14                      1.000000
X_108_15                      1.000000
X_109_30                      1.000000
X_110_1                       1.000000
X_111_20                      1.000000
X_112_20                      1.000000
X_113_20                      1.000000
X_114_5                       1.000000
X_115_6                       1.000000
X_116_15                      1.000000
X_117_23                      1.000000
X_118_26                      1.000000
X_119_30                      1.000000
X_120_16                      1.000000
X_121_9                       1.000000
X_122_6                       1.000000
X_123_24                      1.000000
X_124_21                      1.000000
X_125_2                       1.000000
X_126_8                       1.000000
X_127_17                      1.000000
X_128_23                      1.000000
X_129_11                      1.000000
X_130_10                      1.000000
X_131_16                      1.000000
X_132_1                       1.000000
X_133_5                       1.000000
X_134_20                      1.000000
X_135_20                      1.000000
X_136_12                      1.000000
X_137_28                      1.000000
X_138_12                      1.000000
X_139_7                       1.000000
X_140_20                      1.000000
X_141_24                      1.000000
X_142_21                      1.000000
X_143_3                       1.000000
X_144_23                      1.000000
X_145_14                      1.000000
X_146_20                      1.000000
X_147_11                      1.000000
X_148_20                      1.000000
X_149_25                      1.000000
X_150_26                      1.000000
X_151_1                       1.000000
X_152_21                      1.000000
X_153_2                       1.000000
X_154_1                       1.000000
X_155_20                      1.000000
X_156_8                       1.000000
X_157_4                       1.000000
X_158_6                       1.000000
X_159_16                      1.000000
X_160_1                       1.000000
X_161_27                      1.000000
X_162_20                      1.000000
X_163_25                      1.000000
X_164_20                      1.000000
X_165_1                       1.000000
X_166_30                      1.000000
X_167_26                      1.000000
X_168_6                       1.000000
X_169_18                      1.000000
X_170_20                      1.000000
X_171_18                      1.000000
X_172_5                       1.000000
X_173_18                      1.000000
X_174_28                      1.000000
X_175_26                      1.000000
X_176_15                      1.000000
X_177_22                      1.000000
X_178_16                      1.000000
X_179_8                       1.000000
X_180_30                      1.000000
X_181_9                       1.000000
X_182_13                      1.000000
X_183_4                       1.000000
X_184_6                       1.000000
X_185_7                       1.000000
X_186_19                      1.000000
X_187_4                       1.000000
X_188_9                       1.000000
X_189_2                       1.000000
X_190_30                      1.000000
X_191_11                      1.000000
X_192_1                       1.000000
X_193_2                       1.000000
X_194_11                      1.000000
X_195_25                      1.000000
X_196_30                      1.000000
X_197_1                       1.000000
X_198_30                      1.000000
X_199_4                       1.000000
X_200_16                      1.000000
All other variables in the range 1-6001 are 0.
